60	14
4	5	1	180	2	180	3	180	4	180	5	180	5	1	20	2	20	3	20	4	20	5	20	1	11	20	1	12	20
4	5	1	180	2	180	3	180	4	180	5	180	5	1	20	2	20	3	20	4	20	5	20	1	11	20	1	12	20
4	5	1	180	2	180	3	180	4	180	5	180	5	1	20	2	20	3	20	4	20	5	20	1	11	20	1	12	20
3	5	1	180	2	180	3	180	4	180	5	180	5	1	20	2	20	3	20	4	20	5	20	1	12	20
3	5	1	180	2	180	3	180	4	180	5	180	5	1	20	2	20	3	20	4	20	5	20	1	12	20
3	5	1	180	2	180	3	180	4	180	5	180	5	1	20	2	20	3	20	4	20	5	20	1	12	20
3	5	1	180	2	180	3	180	4	180	5	180	5	1	20	2	20	3	20	4	20	5	20	1	12	20
3	5	1	180	2	180	3	180	4	180	5	180	5	1	20	2	20	3	20	4	20	5	20	1	12	20
3	5	1	180	2	180	3	180	4	180	5	180	5	1	20	2	20	3	20	4	20	5	20	1	12	20
3	5	1	180	2	180	3	180	4	180	5	180	5	1	20	2	20	3	20	4	20	5	20	1	12	20
3	5	1	180	2	180	3	180	4	180	5	180	5	1	20	2	20	3	20	4	20	5	20	1	12	20
3	5	1	180	2	180	3	180	4	180	5	180	5	1	20	2	20	3	20	4	20	5	20	1	12	20
3	5	1	180	2	180	3	180	4	180	5	180	5	1	20	2	20	3	20	4	20	5	20	1	12	20
3	5	1	180	2	180	3	180	4	180	5	180	5	1	20	2	20	3	20	4	20	5	20	1	12	20
3	5	1	180	2	180	3	180	4	180	5	180	5	1	20	2	20	3	20	4	20	5	20	1	12	20
3	5	1	180	2	180	3	180	4	180	5	180	5	1	20	2	20	3	20	4	20	5	20	1	12	20
3	5	1	180	2	180	3	180	4	180	5	180	5	1	20	2	20	3	20	4	20	5	20	1	12	20
3	5	1	180	2	180	3	180	4	180	5	180	5	1	20	2	20	3	20	4	20	5	20	1	12	20
3	5	1	180	2	180	3	180	4	180	5	180	5	1	20	2	20	3	20	4	20	5	20	1	12	20
3	5	1	180	2	180	3	180	4	180	5	180	5	1	20	2	20	3	20	4	20	5	20	1	12	20
5	5	6	60	7	60	8	60	9	60	10	60	5	6	60	7	60	8	60	9	60	10	60	5	1	20	2	20	3	20	4	20	5	20	1	11	20	1	13	20
5	5	6	60	7	60	8	60	9	60	10	60	5	6	60	7	60	8	60	9	60	10	60	5	1	20	2	20	3	20	4	20	5	20	1	11	20	1	13	20
5	5	6	60	7	60	8	60	9	60	10	60	5	6	60	7	60	8	60	9	60	10	60	5	1	20	2	20	3	20	4	20	5	20	1	11	20	1	13	20
5	5	6	60	7	60	8	60	9	60	10	60	5	6	60	7	60	8	60	9	60	10	60	5	1	20	2	20	3	20	4	20	5	20	1	11	20	1	13	20
5	5	6	60	7	60	8	60	9	60	10	60	5	6	60	7	60	8	60	9	60	10	60	5	1	20	2	20	3	20	4	20	5	20	1	11	20	1	13	20
5	5	6	60	7	60	8	60	9	60	10	60	5	6	60	7	60	8	60	9	60	10	60	5	1	20	2	20	3	20	4	20	5	20	1	11	20	1	13	20
5	5	6	60	7	60	8	60	9	60	10	60	5	6	60	7	60	8	60	9	60	10	60	5	1	20	2	20	3	20	4	20	5	20	1	11	20	1	13	20
5	5	6	60	7	60	8	60	9	60	10	60	5	6	60	7	60	8	60	9	60	10	60	5	1	20	2	20	3	20	4	20	5	20	1	11	20	1	13	20
5	5	6	60	7	60	8	60	9	60	10	60	5	6	60	7	60	8	60	9	60	10	60	5	1	20	2	20	3	20	4	20	5	20	1	11	20	1	13	20
5	5	6	60	7	60	8	60	9	60	10	60	5	6	60	7	60	8	60	9	60	10	60	5	1	20	2	20	3	20	4	20	5	20	1	11	20	1	13	20
2	5	6	20	7	20	8	20	9	20	10	20	5	1	180	2	180	3	180	4	180	5	180
2	5	6	20	7	20	8	20	9	20	10	20	5	1	180	2	180	3	180	4	180	5	180
2	5	6	20	7	20	8	20	9	20	10	20	5	1	180	2	180	3	180	4	180	5	180
2	5	6	20	7	20	8	20	9	20	10	20	5	1	180	2	180	3	180	4	180	5	180
2	5	6	20	7	20	8	20	9	20	10	20	5	1	180	2	180	3	180	4	180	5	180
2	5	6	20	7	20	8	20	9	20	10	20	5	1	180	2	180	3	180	4	180	5	180
2	5	6	20	7	20	8	20	9	20	10	20	5	1	180	2	180	3	180	4	180	5	180
2	5	6	20	7	20	8	20	9	20	10	20	5	1	180	2	180	3	180	4	180	5	180
2	5	6	20	7	20	8	20	9	20	10	20	5	1	180	2	180	3	180	4	180	5	180
2	5	6	20	7	20	8	20	9	20	10	20	5	1	180	2	180	3	180	4	180	5	180
3	5	6	20	7	20	8	20	9	20	10	20	5	6	20	7	20	8	20	9	20	10	20	1	13	20
3	5	6	20	7	20	8	20	9	20	10	20	5	6	20	7	20	8	20	9	20	10	20	1	13	20
3	5	6	20	7	20	8	20	9	20	10	20	5	6	20	7	20	8	20	9	20	10	20	1	13	20
3	5	6	20	7	20	8	20	9	20	10	20	5	6	20	7	20	8	20	9	20	10	20	1	13	20
3	5	6	20	7	20	8	20	9	20	10	20	5	6	20	7	20	8	20	9	20	10	20	1	13	20
4	5	6	20	7	20	8	20	9	20	10	20	5	6	20	7	20	8	20	9	20	10	20	1	11	20	1	13	20
4	5	6	20	7	20	8	20	9	20	10	20	5	6	20	7	20	8	20	9	20	10	20	1	11	20	1	13	20
4	5	6	20	7	20	8	20	9	20	10	20	5	6	20	7	20	8	20	9	20	10	20	1	11	20	1	13	20
4	5	6	20	7	20	8	20	9	20	10	20	5	6	20	7	20	8	20	9	20	10	20	1	11	20	1	13	20
4	5	6	20	7	20	8	20	9	20	10	20	5	6	20	7	20	8	20	9	20	10	20	1	11	20	1	13	20
4	5	6	20	7	20	8	20	9	20	10	20	1	11	20	1	14	20	1	12	20
4	5	6	20	7	20	8	20	9	20	10	20	1	11	20	1	14	20	1	12	20
4	5	6	20	7	20	8	20	9	20	10	20	1	11	20	1	14	20	1	12	20
4	5	6	20	7	20	8	20	9	20	10	20	1	11	20	1	14	20	1	12	20
4	5	6	20	7	20	8	20	9	20	10	20	1	11	20	1	14	20	1	12	20
4	5	6	20	7	20	8	20	9	20	10	20	1	11	20	1	14	20	1	12	20
4	5	6	20	7	20	8	20	9	20	10	20	1	11	20	1	14	20	1	12	20
4	5	6	20	7	20	8	20	9	20	10	20	1	11	20	1	14	20	1	12	20
4	5	6	20	7	20	8	20	9	20	10	20	1	11	20	1	14	20	1	12	20
4	5	6	20	7	20	8	20	9	20	10	20	1	11	20	1	14	20	1	12	20